0 48 
1 49 
2 47 
3 47 
4 46 
5 46 
6 45 
7 45 
8 41 
9 39 
10 38 
11 35 
12 37 
13 35 
14 33 
15 32 
16 29 
17 27 
18 26 
19 23 
20 21 
21 21 
22 20 
23 19 
24 16 
25 13 
26 11 
27 12 
28 11 
29 10 
30 9 
31 8 
32 9 
33 8 
34 6 
35 2 
36 2 
37 1 
38 0 
39 0 
40 0 
41 0 

